objective value:                  0.00085330457300016
x_1_2                                               1 	(obj:0)
x_2_1                                               1 	(obj:0)
x_3_2                                               1 	(obj:0)
x_4_3                                1.00000000000011 	(obj:0)
x_5_3                                               1 	(obj:0)
x_6_1                                               1 	(obj:0)
x_7_1                                               1 	(obj:0)
x_8_2                                               1 	(obj:0)
x_9_3                                               1 	(obj:0)
x_10_3                                              1 	(obj:0)
x_11_2                                              1 	(obj:0)
x_12_2                                              1 	(obj:0)
x_13_1                                              1 	(obj:0)
x_14_1                                              1 	(obj:0)
x_15_3                                              1 	(obj:0)
x_16_2                                              1 	(obj:0)
x_17_1                                              1 	(obj:0)
x_18_1                                              1 	(obj:0)
x_19_2                                              1 	(obj:0)
x_20_2                                              1 	(obj:0)
ind_1                                               1 	(obj:0)
abs_1_2                                             1 	(obj:0)
ind_2                                               1 	(obj:0)
abs_2_3                                             1 	(obj:0)
ind_3                                               1 	(obj:0)
abs_3_1                                             1 	(obj:0)
epsI                              0.00085330457300016 	(obj:1)
prodt_x_19_2_t_x_20_2_coh_2                         1 	(obj:0)
prodt_x_1_2_t_x_2_1_more_coh_1      0.129092292499988 	(obj:0)
prodt_x_2_1_t_x_3_1_more_coh_1       6.08121945859999 	(obj:0)
prodt_x_6_1_t_x_7_1_more_coh_1           4.6363860573 	(obj:0)
prodt_x_7_1_t_x_9_1_more_coh_1           3.7193501496 	(obj:0)
prodt_x_13_1_t_x_15_1_more_coh_1         3.5248550248 	(obj:0)
prodt_x_14_1_t_x_15_1_more_coh_1         0.7453170139 	(obj:0)
prodt_x_17_1_t_x_18_1_more_coh_1         1.1476768171 	(obj:0)
prodt_x_1_2_t_x_2_2_more_coh_2           3.8569685907 	(obj:0)
prodt_x_3_2_t_x_4_2_more_coh_2           3.1606932184 	(obj:0)
prodt_x_8_2_t_x_11_2_more_coh_2          3.4085081878 	(obj:0)
prodt_x_11_2_t_x_12_2_more_coh_2         2.4069087916 	(obj:0)
prodt_x_12_2_t_x_13_2_more_coh_2         2.5046439606 	(obj:0)
prodt_x_16_2_t_x_17_2_more_coh_2         1.0681274513 	(obj:0)
prodt_x_4_3_t_x_5_3_more_coh_3       2.96299310325051 	(obj:0)
prodt_x_5_3_t_x_6_3_more_coh_3           2.6796390868 	(obj:0)
prodt_x_9_3_t_x_14_3_more_coh_3          2.2902171123 	(obj:0)
prodt_x_10_3_t_x_11_3_more_coh_3         1.8621533287 	(obj:0)
prodt_x_1_2_t_x_2_2_more_irrev1_2_1     2.66058661688531 	(obj:0)
prodt_x_2_1_t_x_4_2_more_irrev1_2_1    0.655552457307723 	(obj:0)
prodt_x_3_2_t_x_4_1_more_irrev1_2_1     3.50651820964662 	(obj:0)
prodt_x_6_1_t_x_7_2_more_irrev1_2_1     3.72296715070601 	(obj:0)
prodt_x_7_1_t_x_8_2_more_irrev1_2_1    0.363648889999998 	(obj:0)
prodt_x_8_2_t_x_9_1_more_irrev1_2_1     1.32181272434769 	(obj:0)
prodt_x_11_2_t_x_13_1_more_irrev1_2_1     2.79288768451782 	(obj:0)
prodt_x_12_2_t_x_13_1_more_irrev1_2_1    0.311612850000001 	(obj:0)
prodt_x_13_1_t_x_14_2_more_irrev1_2_1    0.863523029808916 	(obj:0)
prodt_x_14_1_t_x_16_2_more_irrev1_2_1     2.18407913811525 	(obj:0)
prodt_x_16_2_t_x_19_1_more_irrev1_2_1    0.550927837609894 	(obj:0)
prodt_x_17_1_t_x_20_2_more_irrev1_2_1    0.107308363739446 	(obj:0)
prodt_x_18_1_t_x_19_2_more_irrev1_2_1     1.74346720861983 	(obj:0)
prodt_x_1_2_t_x_2_2_more_irrev2_2_1    -2.66058661688531 	(obj:0)
prodt_x_2_1_t_x_4_2_more_irrev2_2_1   -0.655552457309449 	(obj:0)
prodt_x_3_2_t_x_4_1_more_irrev2_2_1    -3.50651820964662 	(obj:0)
prodt_x_6_1_t_x_7_2_more_irrev2_2_1    -3.72296715070601 	(obj:0)
prodt_x_7_1_t_x_8_2_more_irrev2_2_1   -0.363648889999998 	(obj:0)
prodt_x_8_2_t_x_9_1_more_irrev2_2_1    -1.32181272434769 	(obj:0)
prodt_x_11_2_t_x_13_1_more_irrev2_2_1    -2.79288768451782 	(obj:0)
prodt_x_12_2_t_x_13_1_more_irrev2_2_1   -0.311612850000001 	(obj:0)
prodt_x_13_1_t_x_14_2_more_irrev2_2_1   -0.863523029808916 	(obj:0)
prodt_x_14_1_t_x_16_2_more_irrev2_2_1    -2.18407913811525 	(obj:0)
prodt_x_16_2_t_x_19_1_more_irrev2_2_1   -0.550927837609894 	(obj:0)
prodt_x_17_1_t_x_20_2_more_irrev2_2_1   -0.107308363739446 	(obj:0)
prodt_x_18_1_t_x_19_2_more_irrev2_2_1     1.74346720861983 	(obj:0)
prodt_x_1_2_t_x_2_3_more_irrev1_3_1    -2.65771099917554 	(obj:0)
prodt_x_2_1_t_x_4_3_more_irrev1_3_1    -2.40733949882092 	(obj:0)
prodt_x_4_3_t_x_7_1_more_irrev1_3_1    -2.20858084999972 	(obj:0)
prodt_x_5_3_t_x_7_1_more_irrev1_3_1   -0.665492698355889 	(obj:0)
prodt_x_6_1_t_x_7_3_more_irrev1_3_1    -1.07125259078026 	(obj:0)
prodt_x_7_1_t_x_8_3_more_irrev1_3_1    -1.58459657999999 	(obj:0)
prodt_x_9_3_t_x_11_1_more_irrev1_3_1   -0.752386625540332 	(obj:0)
prodt_x_10_3_t_x_12_1_more_irrev1_3_1     -2.4108656300137 	(obj:0)
prodt_x_13_1_t_x_14_3_more_irrev1_3_1                   -1 	(obj:0)
prodt_x_14_1_t_x_16_3_more_irrev1_3_1  -0.0389195623573153 	(obj:0)
prodt_x_15_3_t_x_16_1_more_irrev1_3_1    -1.45152786239199 	(obj:0)
prodt_x_1_2_t_x_2_3_more_irrev2_3_1     2.65771099917554 	(obj:0)
prodt_x_2_1_t_x_4_3_more_irrev2_3_1     2.40733949882092 	(obj:0)
prodt_x_4_3_t_x_7_1_more_irrev2_3_1     2.20858084999972 	(obj:0)
prodt_x_5_3_t_x_7_1_more_irrev2_3_1    0.665492698355889 	(obj:0)
prodt_x_6_1_t_x_7_3_more_irrev2_3_1     1.07125259078026 	(obj:0)
prodt_x_7_1_t_x_8_3_more_irrev2_3_1     1.58459657999999 	(obj:0)
prodt_x_9_3_t_x_11_1_more_irrev2_3_1    0.752386625540332 	(obj:0)
prodt_x_10_3_t_x_12_1_more_irrev2_3_1      2.4108656300137 	(obj:0)
prodt_x_13_1_t_x_14_3_more_irrev2_3_1                    1 	(obj:0)
prodt_x_14_1_t_x_16_3_more_irrev2_3_1   0.0389195623573153 	(obj:0)
prodt_x_15_3_t_x_16_1_more_irrev2_3_1     1.45152786239199 	(obj:0)
prodt_x_1_2_t_x_2_3_more_irrev1_3_2     2.65771099917554 	(obj:0)
prodt_x_3_2_t_x_4_3_more_irrev1_3_2    0.326235888560607 	(obj:0)
prodt_x_4_3_t_x_7_2_more_irrev1_3_2     1.12147284999972 	(obj:0)
prodt_x_5_3_t_x_7_2_more_irrev1_3_2     2.89166176831669 	(obj:0)
prodt_x_8_2_t_x_9_3_more_irrev1_3_2     1.75061499220867 	(obj:0)
prodt_x_9_3_t_x_11_2_more_irrev1_3_2     2.80394238489547 	(obj:0)
prodt_x_10_3_t_x_12_2_more_irrev1_3_2    0.783122010498102 	(obj:0)
prodt_x_11_2_t_x_13_3_more_irrev1_3_2    0.184305743944089 	(obj:0)
prodt_x_12_2_t_x_14_3_more_irrev1_3_2    0.745849400000001 	(obj:0)
prodt_x_15_3_t_x_16_2_more_irrev1_3_2     1.74904081952172 	(obj:0)
prodt_x_1_2_t_x_2_3_more_irrev2_3_2    -2.65771099917554 	(obj:0)
prodt_x_3_2_t_x_4_3_more_irrev2_3_2   -0.326235888560607 	(obj:0)
prodt_x_4_3_t_x_7_2_more_irrev2_3_2    -1.12147284999972 	(obj:0)
prodt_x_5_3_t_x_7_2_more_irrev2_3_2    -2.89166176831677 	(obj:0)
prodt_x_8_2_t_x_9_3_more_irrev2_3_2    -1.75061499220867 	(obj:0)
prodt_x_9_3_t_x_11_2_more_irrev2_3_2    -2.80394238489546 	(obj:0)
prodt_x_10_3_t_x_12_2_more_irrev2_3_2   -0.783122010498104 	(obj:0)
prodt_x_11_2_t_x_13_3_more_irrev2_3_2   -0.184305743944089 	(obj:0)
prodt_x_12_2_t_x_14_3_more_irrev2_3_2   -0.745849400000001 	(obj:0)
prodt_x_15_3_t_x_16_2_more_irrev2_3_2    -1.74904081952172 	(obj:0)
SCIP Status        : solving was interrupted [time limit reached]
Total Time         :    3600.00
  solving          :    3600.00
  presolving       :       0.05 (included in solving)
  reading          :       0.00
  copying          :       1.80 (206 #copies) (minimal 0.00, maximal 0.02, average 0.01)
Original Problem   :
  Problem name     : ../instances/Pot4/Pot4_T_20B_alpha=17.txt.spa
  Variables        : 101 (100 binary, 0 integer, 0 implicit integer, 1 continuous)
  Constraints      : 193 initial, 193 maximal
  Objective sense  : maximize
Presolved Problem  :
  Problem name     : t_../instances/Pot4/Pot4_T_20B_alpha=17.txt.spa
  Variables        : 590 (92 binary, 0 integer, 16 implicit integer, 482 continuous)
  Constraints      : 2015 initial, 4796 maximal
Presolvers         :   ExecTime  SetupTime  Calls  FixedVars   AggrVars   ChgTypes  ChgBounds   AddHoles    DelCons    AddCons   ChgSides   ChgCoefs
  boundshift       :       0.00       0.00      0          0          0          0          0          0          0          0          0          0
  components       :       0.00       0.00      1          0          0          0          0          0          0          0          0          0
  convertinttobin  :       0.00       0.00      0          0          0          0          0          0          0          0          0          0
  domcol           :       0.00       0.00      1          0          0          0          0          0          0          0          0          0
  dualagg          :       0.00       0.00      0          0          0          0          0          0          0          0          0          0
  dualinfer        :       0.00       0.00      0          0          0          0          0          0          0          0          0          0
  gateextraction   :       0.00       0.00      3          0          0          0          0          0        108         34          0          0
  implfree         :       0.00       0.00      0          0          0          0          0          0          0          0          0          0
  implics          :       0.00       0.00      4          0          0          0          0          0          0          0          0          0
  inttobinary      :       0.00       0.00      0          0          0          0          0          0          0          0          0          0
  redvub           :       0.00       0.00      0          0          0          0          0          0          0          0          0          0
  stuffing         :       0.00       0.00      1          0          0          0          0          0          0          0          0          0
  trivial          :       0.00       0.00      7          0          0          0          0          0          0          0          0          0
  tworowbnd        :       0.00       0.00      0          0          0          0          0          0          0          0          0          0
  dualfix          :       0.00       0.00      7          4          0          0          0          0          0          0          0          0
  genvbounds       :       0.00       0.00      0          0          0          0          0          0          0          0          0          0
  probing          :       0.03       0.00      1          0          0          0          4          0          0          0          0          0
  pseudoobj        :       0.00       0.00      0          0          0          0          0          0          0          0          0          0
  varbound         :       0.00       0.00      9          0          0          0          0          0         28         28          0          0
  setppc           :       0.00       0.00     12          0          0          0          0          0          0          0          0          0
  and              :       0.00       0.00      4          0         12          0          0          0         12          0          0          0
  linear           :       0.01       0.00      9          3          1          0          4          0          7          0         12         12
  logicor          :       0.00       0.00      7          0          0          0          0          0          0          0          0          0
  bounddisjunction :       0.00       0.00      0          0          0          0          0          0          0          0          0          0
  quadratic        :       0.01       0.00      2          0          0          0          0          0          0       1915          0          0
  root node        :          -          -      -          1          -          -         88          -          -          -          -          -
Constraints        :     Number  MaxNumber  #Separate #Propagate    #EnfoLP    #EnfoPS     #Check   #ResProp    Cutoffs    DomReds       Cuts    Applied      Conss   Children
  integral         :          0          0          0          0    2042077          0     426385          0          0      48943          0          0        137    4059414
  varbound         :        869        869        134   12503583       7514          0     173285    3438672      63136   85030886          4          4          0          0
  setppc           :        110+       136        134   12440165       7507          0        849    1816757      12637    5199047         14          1          0          0
  and              :         22         22     489981    2687755       3947          0        655     339103         14     372884       2546       2527          0          0
  linear           :        979        979        134   12427797       5351          0        525    1572335     208434  121212625     244881     244682          0          0
  logicor          :         35+       700        130    3654982          0          0          0      36403       2895     320761          3          2          0          0
  bounddisjunction :          0+      2198          0    5355126          0          0          0     566748       4441    7990011          0          0          0          0
  countsols        :          0          0          0          0          6          0     252062          0          0          0          0          0          0          0
Constraint Timings :  TotalTime  SetupTime   Separate  Propagate     EnfoLP     EnfoPS      Check    ResProp    SB-Prop
  integral         :      18.50       0.00       0.00       0.00      18.42       0.00       0.08       0.00       0.00
  varbound         :      59.81       0.00       0.01      58.55       0.01       0.00       0.65       0.51       0.08
  setppc           :      41.36       0.00       0.00      40.99       0.00       0.00       0.01       0.31       0.05
  and              :       1.16       0.00       0.19       0.83       0.01       0.00       0.00       0.13       0.00
  linear           :     180.39       0.00       0.01     178.68       0.20       0.00       0.00       1.15       0.35
  logicor          :      18.47       0.00       0.00      18.45       0.00       0.00       0.00       0.02       0.00
  bounddisjunction :     112.70       0.00       0.00     112.49       0.00       0.00       0.00       0.15       0.06
  countsols        :       0.02       0.00       0.00       0.00       0.00       0.00       0.02       0.00       0.00
Propagators        : #Propagate   #ResProp    Cutoffs    DomReds
  dualfix          :          2          0          0          0
  genvbounds       :          0          0          0          0
  obbt             :          0          0          0          0
  probing          :          0          0          0          0
  pseudoobj        :   13094547          0       4836         86
  redcost          :    4550613          0       1003     807469
  rootredcost      :          9          0          0          1
  vbounds          :   14544474      15551         61     379194
Propagator Timings :  TotalTime  SetupTime   Presolve  Propagate    ResProp    SB-Prop
  dualfix          :       0.00       0.00       0.00       0.00       0.00       0.00
  genvbounds       :       1.71       0.00       0.00       1.71       0.00       0.00
  obbt             :       0.00       0.00       0.00       0.00       0.00       0.00
  probing          :       0.03       0.00       0.03       0.00       0.00       0.00
  pseudoobj        :       3.58       0.00       0.00       3.58       0.00       0.00
  redcost          :      27.29       0.00       0.00      27.29       0.00       0.00
  rootredcost      :       2.02       0.00       0.00       2.02       0.00       0.00
  vbounds          :       4.95       0.00       0.00       4.95       0.00       0.00
Conflict Analysis  :       Time      Calls    Success    DomReds  Conflicts   Literals    Reconvs ReconvLits   LP Iters
  propagation      :       3.91      91321      88833          -     820696       34.9       5391       43.8          -
  infeasible LP    :      10.95      79361      74348          -    1124778       36.4         84       13.0          0
  bound exceed. LP :       0.00          0          0          -          0        0.0          0        0.0          0
  strong branching :       0.00          0          0          -          0        0.0          0        0.0          0
  pseudo solution  :       0.00          0          0          -          0        0.0          0        0.0          -
  applied globally :       3.36          -          -          0     287315       19.5          -          -          -
  applied locally  :          -          -          -          0       2729       34.4          -          -          -
Separators         :   ExecTime  SetupTime      Calls    Cutoffs    DomReds       Cuts    Applied      Conss
  cut pool         :       0.00                   132          -          -       1329          -          -    (maximal pool size: 693)
  cgmip            :       0.00       0.00          0          0          0          0          0          0
  clique           :       0.00       0.00        133          0          0         37         31          0
  closecuts        :       0.00       0.00          0          0          0          0          0          0
  cmir             :       0.01       0.00         10          0          0        213        159          0
  disjunctive      :       0.00       0.00          0          0          0          0          0          0
  eccuts           :       0.00       0.00          0          0          0          0          0          0
  flowcover        :       0.13       0.00         15          0          0        244         13          0
  gomory           :       0.04       0.00         10          0          0          8          8          0
  impliedbounds    :       0.01       0.00        133          0          0        981        197          0
  intobj           :       0.00       0.00          0          0          0          0          0          0
  mcf              :       0.00       0.00          1          0          0          0          0          0
  oddcycle         :       0.00       0.00          0          0          0          0          0          0
  rapidlearning    :       0.00       0.00          0          0          0          0          0          0
  strongcg         :       0.04       0.00         20          0          0          0          0          0
  zerohalf         :       0.00       0.00          0          0          0          0          0          0
Pricers            :   ExecTime  SetupTime      Calls       Vars
  problem variables:       0.00          -          0          0
Branching Rules    :   ExecTime  SetupTime   BranchLP  BranchExt   BranchPS    Cutoffs    DomReds       Cuts      Conss   Children
  allfullstrong    :       0.00       0.00          0          0          0          0          0          0          0          0
  cloud            :       0.00       0.00          0          0          0          0          0          0          0          0
  distribution     :       0.00       0.00          0          0          0          0          0          0          0          0
  fullstrong       :       0.00       0.00          0          0          0          0          0          0          0          0
  inference        :       0.00       0.00          0          0          0          0          0          0          0          0
  leastinf         :       0.00       0.00          0          0          0          0          0          0          0          0
  mostinf          :       0.00       0.00          0          0          0          0          0          0          0          0
  multaggr         :       0.00       0.00          0          0          0          0          0          0          0          0
  nodereopt        :       0.00       0.00          0          0          0          0          0          0          0          0
  pscost           :       0.00       0.00          0          0          0          0          0          0          0          0
  random           :       0.00       0.00          0          0          0          0          0          0          0          0
  relpscost        :      17.59       0.00    2034562          0          0          0      48943          0       -367    4059414
Primal Heuristics  :   ExecTime  SetupTime      Calls      Found       Best
  LP solutions     :       0.00          -          -          6          -
  pseudo solutions :       0.00          -          -          0          -
  strong branching :       0.00          -          -          0          -
  SpaGreedy        :     265.28       0.00     252059          2          1
  actconsdiving    :       0.00       0.00          0          0          0
  bound            :       0.00       0.00          0          0          0
  clique           :       0.00       0.00          0          0          0
  coefdiving       :      34.90       0.00      10682          0          0
  crossover        :       1.02       0.00          2          0          0
  dins             :       0.00       0.00          0          0          0
  distributiondivin:      62.38       0.00      10681          0          0
  dualval          :       0.00       0.00          0          0          0
  feaspump         :      20.28       0.00       2142          0          0
  fixandinfer      :       0.00       0.00          0          0          0
  fracdiving       :      34.34       0.00      10681          0          0
  guideddiving     :      32.88       0.00      10682          0          0
  indicator        :       0.27       0.00          0          0          0
  intdiving        :       0.00       0.00          0          0          0
  intshifting      :       0.39       0.00        189          0          0
  linesearchdiving :      33.20       0.00      10682          0          0
  localbranching   :       0.00       0.00          0          0          0
  mutation         :       0.00       0.00          0          0          0
  nlpdiving        :       0.05       0.00          0          0          0
  objpscostdiving  :      20.37       0.00       2594          0          0
  octane           :       0.00       0.00          0          0          0
  ofins            :       0.00       0.00          0          0          0
  oneopt           :       0.65       0.00          8          0          0
  proximity        :       0.00       0.00          0          0          0
  pscostdiving     :      31.73       0.00      10682          0          0
  randrounding     :       1.80       0.00     173726          0          0
  rens             :       0.21       0.00          1          0          0
  reoptsols        :       0.00       0.00          0          0          0
  rins             :       7.09       0.00        170          2          2
  rootsoldiving    :      21.06       0.00       3424          0          0
  rounding         :       0.77       0.00      20006          0          0
  shiftandpropagate:       0.00       0.00          0          0          0
  shifting         :       1.55       0.00       5779          0          0
  simplerounding   :       0.47       0.00          0          0          0
  subnlp           :       0.54       0.00          0          0          0
  trivial          :       0.00       0.00          2          0          0
  trivialnegation  :       0.00       0.00          0          0          0
  trysol           :       0.74       0.00          0          0          0
  twoopt           :       0.00       0.00          0          0          0
  undercover       :       0.00       0.00          1          0          0
  vbounds          :       0.00       0.00          0          0          0
  veclendiving     :      37.73       0.00      10682          0          0
  zeroobj          :       0.00       0.00          0          0          0
  zirounding       :       0.57       0.00       1000          0          0
  other solutions  :          -          -          -          0          -
Diving Statistics  :      Calls      Nodes   LP Iters Backtracks   MinDepth   MaxDepth   AvgDepth  NLeafSols  MinSolDpt  MaxSolDpt  AvgSolDpt
  actconsdiving    :          0          -          -          -          -          -          -          -          -          -          -
  coefdiving       :      10682      79264     778198      15062         15         40       27.9          -          -          -          -
  distributiondivin:      10681      65092     745811      14802         14         40       26.7          -          -          -          -
  fracdiving       :      10681      76958     841706      16578         16         49       27.5          -          -          -          -
  guideddiving     :      10682      86564     835193      14458         18         52       28.8          -          -          -          -
  linesearchdiving :      10682      66173     811308      16296         15         41       26.5          -          -          -          -
  pscostdiving     :      10682      85946     767222      13474         15         51       28.7          -          -          -          -
  veclendiving     :      10682      76019     810147      20435         16         36       27.1          -          -          -          -
LP                 :       Time      Calls Iterations  Iter/call   Iter/sec  Time-0-It Calls-0-It
  primal LP        :       0.00         21          0       0.00          -       0.00         21
  dual LP          :    1556.63    4303535   66331183      18.38   42612.04      64.20     695544
  lex dual LP      :       0.00          0          0       0.00          -
  barrier LP       :       0.00          0          0       0.00          -       0.00          0
  diving/probing LP:     192.51     295637    7691936      26.02   39956.03
  strong branching :       5.59       6573     201893      30.72   36116.82
    (at root node) :          -         19       1716      90.32          -
  conflict analysis:       0.00          0          0       0.00          -
B&B Tree           :
  number of runs   :          1
  nodes            :    3925216 (2029707 internal, 1895509 leaves)
  nodes (total)    :    3925216 (2029707 internal, 1895509 leaves)
  nodes left       :     126177
  max depth        :         36
  max depth (total):         36
  backtracks       :    1139108 (29.0%)
  delayed cutoffs  :       7724
  repropagations   :     126074 (3419567 domain reductions, 6515 cutoffs)
  avg switch length:       6.91
  switching time   :     573.59
Root Node          :
  First LP value   : +3.00000000000000e+00
  First LP Iters   :        375 (37500.00 Iter/sec)
  First LP Time    :       0.01
  Final Dual Bound : +7.05853448988354e-03
  Final Root Iters :       2840
Solution           :
  Solutions found  :         10 (9 improvements)
  First Solution   : +7.73868535999978e-04   (in run 1, after 1 nodes, 0.05 seconds, depth 0, found by <SpaGreedy>)
  Gap First Sol.   :   infinite
  Gap Last Sol.    :      67.17 %
  Primal Bound     : +8.53304573000160e-04   (in run 1, after 236107 nodes, 198.04 seconds, depth 31, found by <relaxation>)
  Dual Bound       : +1.12762556936239e-03
  Gap              :      32.15 %
  Avg. Gap         :      38.88 % (139974.38 primal-dual integral)
